n = 10; 

m=8; 

																							
											
76	91	14	29	12	77	32	87	68	94	
3	61	73	75	47	14	21	86	5	77	
7	1	63	41	63	47	26	75	17	10	
22	53	32	5	94	12	41	25	75	38	
11	49	8	3	47	58	23	79	19	23	
18	73	40	61	68	15	37	13	65	7	
93	60	19	29	14	41	51	87	9	11	
7	1	63	41	63	47	26	75	17	10	










 
 


 

 
